certificates/rado_a6_c122_N21.cnf
c Rad2 upper bound instance: x1 + 6*x2 - x3 = 122, interval [1,21]
p cnf 21 114
1 5 21 0
-1 -5 -21 0
2 6 21 0
-2 -6 -21 0
1 3 20 0
-1 -3 -20 0
3 7 21 0
-3 -7 -21 0
2 4 20 0
-2 -4 -20 0
4 8 21 0
-4 -8 -21 0
3 5 20 0
-3 -5 -20 0
5 9 21 0
-5 -9 -21 0
4 6 20 0
-4 -6 -20 0
6 10 21 0
-6 -10 -21 0
5 7 20 0
-5 -7 -20 0
7 11 21 0
-7 -11 -21 0
6 8 20 0
-6 -8 -20 0
8 12 21 0
-8 -12 -21 0
1 9 19 0
-1 -9 -19 0
7 9 20 0
-7 -9 -20 0
9 13 21 0
-9 -13 -21 0
2 10 19 0
-2 -10 -19 0
8 10 20 0
-8 -10 -20 0
10 14 21 0
-10 -14 -21 0
3 11 19 0
-3 -11 -19 0
9 11 20 0
-9 -11 -20 0
11 15 21 0
-11 -15 -21 0
4 12 19 0
-4 -12 -19 0
10 12 20 0
-10 -12 -20 0
12 16 21 0
-12 -16 -21 0
5 13 19 0
-5 -13 -19 0
11 13 20 0
-11 -13 -20 0
13 17 21 0
-13 -17 -21 0
6 14 19 0
-6 -14 -19 0
12 14 20 0
-12 -14 -20 0
14 18 21 0
-14 -18 -21 0
1 15 18 0
-1 -15 -18 0
7 15 19 0
-7 -15 -19 0
13 15 20 0
-13 -15 -20 0
15 19 21 0
-15 -19 -21 0
2 16 18 0
-2 -16 -18 0
8 16 19 0
-8 -16 -19 0
14 16 20 0
-14 -16 -20 0
16 20 21 0
-16 -20 -21 0
3 17 18 0
-3 -17 -18 0
9 17 19 0
-9 -17 -19 0
15 17 20 0
-15 -17 -20 0
17 21 0
-17 -21 0
4 18 0
-4 -18 0
10 18 19 0
-10 -18 -19 0
16 18 20 0
-16 -18 -20 0
5 18 19 0
-5 -18 -19 0
11 19 0
-11 -19 0
17 19 20 0
-17 -19 -20 0
6 18 20 0
-6 -18 -20 0
12 19 20 0
-12 -19 -20 0
18 20 0
-18 -20 0
1 17 21 0
-1 -17 -21 0
7 18 21 0
-7 -18 -21 0
13 19 21 0
-13 -19 -21 0
19 20 21 0
-19 -20 -21 0
