certificates/rado_a6_c122_N21.drat
-20 -21 0
-21 0
17 0
20 0
-18 0
-15 0
-19 0
4 0
14 0
7 0
1 0
11 0
0
